g3 5 1 0	# problem tmp
 194 167 1 0 68	# vars, constraints, objectives, ranges, eqns
 99 1 0 83	# nonlinear constrs, objs; ccons: lin, nonlin
 0 0	# network constraints: nonlinear, linear
 33 33 33	# nonlinear vars in constraints, objectives, both
 0 0 0 1	# linear network variables; functions; arith, flags
 0 0 0 0 0	# discrete variables: binary, integer, nonlinear (b,c,o)
 671 33	# nonzeros in Jacobian, gradients
 0 0	# max name lengths: constraints, variables
 0 0 0 0 0	# common exprs: b,c,o,c1,o1
C0
o0
o2
n0.75
o5
o3
v0
n12
n4
n5
C1
o0
o2
n0.75
o5
o3
v0
n12
n4
n5
C2
o0
o2
n0.75
o5
o3
v0
n12
n4
n5
C3
o0
o2
n0.8999999999999999
o5
o3
v1
n18
n4
n6
C4
o0
o2
n0.8999999999999999
o5
o3
v1
n18
n4
n6
C5
o0
o2
n0.8999999999999999
o5
o3
v1
n18
n4
n6
C6
o0
o2
n0.44999999999999996
o5
o3
v2
n35
n4
n3
C7
o0
o2
n0.44999999999999996
o5
o3
v2
n35
n4
n3
C8
o0
o2
n0.44999999999999996
o5
o3
v2
n35
n4
n3
C9
o0
o2
n1.3499999999999999
o5
o3
v3
n35
n4
n9
C10
o0
o2
n1.3499999999999999
o5
o3
v3
n35
n4
n9
C11
o0
o2
n1.3499999999999999
o5
o3
v3
n35
n4
n9
C12
o0
o2
n1.3499999999999999
o5
o3
v4
n20
n4
n9
C13
o0
o2
n1.3499999999999999
o5
o3
v4
n20
n4
n9
C14
o0
o2
n1.3499999999999999
o5
o3
v4
n20
n4
n9
C15
o0
o2
n0.6
o5
o3
v5
n11
n4
n4
C16
o0
o2
n0.6
o5
o3
v5
n11
n4
n4
C17
o0
o2
n0.6
o5
o3
v5
n11
n4
n4
C18
o0
o2
n0.3
o5
o3
v6
n11
n4
n2
C19
o0
o2
n0.3
o5
o3
v6
n11
n4
n2
C20
o0
o2
n0.3
o5
o3
v6
n11
n4
n2
C21
o0
o2
n1.2
o5
o3
v7
n26
n4
n8
C22
o0
o2
n1.2
o5
o3
v7
n26
n4
n8
C23
o0
o2
n1.2
o5
o3
v7
n26
n4
n8
C24
o0
o2
n0.8999999999999999
o5
o3
v8
n33
n4
n6
C25
o0
o2
n0.8999999999999999
o5
o3
v8
n33
n4
n6
C26
o0
o2
n0.8999999999999999
o5
o3
v8
n33
n4
n6
C27
o0
o2
n1.05
o5
o3
v9
n32
n4
n7
C28
o0
o2
n1.05
o5
o3
v9
n32
n4
n7
C29
o0
o2
n1.05
o5
o3
v9
n32
n4
n7
C30
o0
o2
n0.6
o5
o3
v10
n26
n4
n4
C31
o0
o2
n0.6
o5
o3
v10
n26
n4
n4
C32
o0
o2
n0.6
o5
o3
v10
n26
n4
n4
C33
o0
o2
n1.2
o5
o3
v11
n30
n4
n8
C34
o0
o2
n1.2
o5
o3
v11
n30
n4
n8
C35
o0
o2
n1.2
o5
o3
v11
n30
n4
n8
C36
o0
o2
n0.3
o5
o3
v12
n19
n4
n2
C37
o0
o2
n0.3
o5
o3
v12
n19
n4
n2
C38
o0
o2
n0.3
o5
o3
v12
n19
n4
n2
C39
o0
o2
n0.6
o5
o3
v13
n36
n4
n4
C40
o0
o2
n0.6
o5
o3
v13
n36
n4
n4
C41
o0
o2
n0.6
o5
o3
v13
n36
n4
n4
C42
o0
o2
n0.44999999999999996
o5
o3
v14
n25
n4
n3
C43
o2
n-0.44999999999999996
o5
o3
v14
n25
n4
C44
o2
n-0.44999999999999996
o5
o3
v14
n25
n4
C45
o2
n-0.8999999999999999
o5
o3
v15
n24
n4
C46
o0
o2
n0.8999999999999999
o5
o3
v15
n24
n4
n6
C47
o2
n-0.8999999999999999
o5
o3
v15
n24
n4
C48
o0
o2
n1.2
o5
o3
v16
n39
n4
n8
C49
o2
n-1.2
o5
o3
v16
n39
n4
C50
o2
n-1.2
o5
o3
v16
n39
n4
C51
o2
n-0.8999999999999999
o5
o3
v17
n43
n4
C52
o0
o2
n0.8999999999999999
o5
o3
v17
n43
n4
n6
C53
o2
n-0.8999999999999999
o5
o3
v17
n43
n4
C54
o0
o2
n0.3
o5
o3
v18
n22
n4
n2
C55
o0
o2
n0.3
o5
o3
v18
n22
n4
n2
C56
o0
o2
n0.3
o5
o3
v18
n22
n4
n2
C57
o0
o2
n0.75
o5
o3
v19
n43
n4
n5
C58
o0
o2
n0.75
o5
o3
v19
n43
n4
n5
C59
o0
o2
n0.75
o5
o3
v19
n43
n4
n5
C60
o0
o2
n0.44999999999999996
o5
o3
v20
n32
n4
n3
C61
o0
o2
n0.44999999999999996
o5
o3
v20
n32
n4
n3
C62
o0
o2
n0.44999999999999996
o5
o3
v20
n32
n4
n3
C63
o0
o2
n0.75
o5
o3
v21
n52
n4
n5
C64
o0
o2
n0.75
o5
o3
v21
n52
n4
n5
C65
o0
o2
n0.75
o5
o3
v21
n52
n4
n5
C66
o0
o2
n0.6
o5
o3
v22
n41
n4
n4
C67
o0
o2
n0.6
o5
o3
v22
n41
n4
n4
C68
o0
o2
n0.6
o5
o3
v22
n41
n4
n4
C69
o0
o2
n0.44999999999999996
o5
o3
v23
n35
n4
n3
C70
o0
o2
n0.44999999999999996
o5
o3
v23
n35
n4
n3
C71
o0
o2
n0.44999999999999996
o5
o3
v23
n35
n4
n3
C72
o0
o2
n0.3
o5
o3
v24
n21
n4
n2
C73
o0
o2
n0.3
o5
o3
v24
n21
n4
n2
C74
o0
o2
n0.3
o5
o3
v24
n21
n4
n2
C75
o0
o2
n1.05
o5
o3
v25
n36
n4
n7
C76
o0
o2
n1.05
o5
o3
v25
n36
n4
n7
C77
o0
o2
n1.05
o5
o3
v25
n36
n4
n7
C78
o0
o2
n1.2
o5
o3
v26
n42
n4
n8
C79
o0
o2
n1.2
o5
o3
v26
n42
n4
n8
C80
o0
o2
n1.2
o5
o3
v26
n42
n4
n8
C81
o0
o2
n0.75
o5
o3
v27
n31
n4
n5
C82
o0
o2
n0.75
o5
o3
v27
n31
n4
n5
C83
o0
o2
n0.75
o5
o3
v27
n31
n4
n5
C84
o2
n-0.44999999999999996
o5
o3
v28
n23
n4
C85
o0
o2
n0.44999999999999996
o5
o3
v28
n23
n4
n3
C86
o0
o2
n0.44999999999999996
o5
o3
v28
n23
n4
n3
C87
o2
n-1.3499999999999999
o5
o3
v29
n26
n4
C88
o2
n-1.3499999999999999
o5
o3
v29
n26
n4
C89
o0
o2
n1.3499999999999999
o5
o3
v29
n26
n4
n9
C90
o2
n-1.05
o5
o3
v30
n37
n4
C91
o0
o2
n1.05
o5
o3
v30
n37
n4
n7
C92
o0
o2
n1.05
o5
o3
v30
n37
n4
n7
C93
o2
n-0.75
o5
o3
v31
n26
n4
C94
o0
o2
n0.75
o5
o3
v31
n26
n4
n5
C95
o2
n-0.75
o5
o3
v31
n26
n4
C96
o2
n-0.8999999999999999
o5
o3
v32
n42
n4
C97
o2
n-0.8999999999999999
o5
o3
v32
n42
n4
C98
o0
o2
n0.8999999999999999
o5
o3
v32
n42
n4
n6
C99
n0
C100
n0
C101
n0
C102
n0
C103
n0
C104
n0
C105
n0
C106
n0
C107
n0
C108
n0
C109
n0
C110
n0
C111
n0
C112
n0
C113
n0
C114
n0
C115
n0
C116
n0
C117
n0
C118
n0
C119
n0
C120
n0
C121
n0
C122
n0
C123
n0
C124
n0
C125
n0
C126
n0
C127
n0
C128
n0
C129
n0
C130
n0
C131
n0
C132
n0
C133
n0
C134
n0
C135
n0
C136
n0
C137
n0
C138
n0
C139
n0
C140
n0
C141
n0
C142
n0
C143
n0
C144
n0
C145
n0
C146
n0
C147
n0
C148
n0
C149
n0
C150
n0
C151
n0
C152
n0
C153
n0
C154
n0
C155
n0
C156
n0
C157
n0
C158
n0
C159
n0
C160
n0
C161
n0
C162
n0
C163
n0
C164
n0
C165
n0
C166
n0
O0 0
o54
34
o2
n0.75
o5
o3
v0
n12
n4
o2
n0.8999999999999999
o5
o3
v1
n18
n4
o2
n0.44999999999999996
o5
o3
v2
n35
n4
o2
n1.3499999999999999
o5
o3
v3
n35
n4
o2
n1.3499999999999999
o5
o3
v4
n20
n4
o2
n0.6
o5
o3
v5
n11
n4
o2
n0.3
o5
o3
v6
n11
n4
o2
n1.2
o5
o3
v7
n26
n4
o2
n0.8999999999999999
o5
o3
v8
n33
n4
o2
n1.05
o5
o3
v9
n32
n4
o2
n0.6
o5
o3
v10
n26
n4
o2
n1.2
o5
o3
v11
n30
n4
o2
n0.3
o5
o3
v12
n19
n4
o2
n0.6
o5
o3
v13
n36
n4
o2
n0.44999999999999996
o5
o3
v14
n25
n4
o2
n0.8999999999999999
o5
o3
v15
n24
n4
o2
n1.2
o5
o3
v16
n39
n4
o2
n0.8999999999999999
o5
o3
v17
n43
n4
o2
n0.3
o5
o3
v18
n22
n4
o2
n0.75
o5
o3
v19
n43
n4
o2
n0.44999999999999996
o5
o3
v20
n32
n4
o2
n0.75
o5
o3
v21
n52
n4
o2
n0.6
o5
o3
v22
n41
n4
o2
n0.44999999999999996
o5
o3
v23
n35
n4
o2
n0.3
o5
o3
v24
n21
n4
o2
n1.05
o5
o3
v25
n36
n4
o2
n1.2
o5
o3
v26
n42
n4
o2
n0.75
o5
o3
v27
n31
n4
o2
n0.44999999999999996
o5
o3
v28
n23
n4
o2
n1.3499999999999999
o5
o3
v29
n26
n4
o2
n1.05
o5
o3
v30
n37
n4
o2
n0.75
o5
o3
v31
n26
n4
o2
n0.8999999999999999
o5
o3
v32
n42
n4
n174
x156
0 12
1 18
2 35
3 35
4 20
5 11
6 11
7 26
8 33
9 32
10 26
11 30
12 19
13 36
14 25
15 24
16 39
17 43
18 22
19 43
20 32
21 52
22 41
23 35
24 21
25 36
26 42
27 31
28 23
29 26
30 37
31 26
32 42
33 0.001
34 0.001
35 0.001
36 0.001
37 0.001
38 0.001
39 0.001
40 0.001
41 0.001
42 0.001
43 0.001
44 0.001
45 0.001
46 0.001
47 0.001
48 0.001
49 0.001
50 0.001
51 0.001
52 0.001
53 0.001
54 0.001
55 0.001
56 0.001
57 0.001
58 0.001
59 0.001
60 0.001
61 0.001
62 0.001
63 0.001
64 0.001
65 0.001
66 0.001
67 0.001
68 0.001
69 0.001
70 0.001
71 0.001
72 0.001
73 0.001
74 0.001
75 0.001
76 0.001
77 0.001
78 0.001
79 0.001
80 0.001
81 0.001
82 0.001
83 0.001
84 0.001
85 0.001
86 0.001
87 0.001
88 0.001
89 0.001
90 0.001
91 0.001
92 0.001
93 0.001
94 0.001
95 0.001
96 0.001
97 0.001
98 0.001
99 0.001
100 0.001
101 0.001
102 0.001
103 0.001
104 0.001
105 0.001
106 0.001
107 0.001
108 0.001
109 0.001
110 0.001
111 0.001
112 0.001
113 0.001
114 0.001
115 0.001
116 1
117 1
118 1
119 1
120 1
121 1
122 1
123 1
124 1
125 1
126 1
127 1
128 1
129 1
130 1
131 1
132 1
133 1
134 1
135 1
136 1
137 1
138 1
139 1
140 1
141 1
142 1
143 1
144 1
145 1
146 1
147 1
148 1
167 3
168 6
170 8
171 6
187 9
192 5
193 6
r
5 1 34
5 1 35
5 1 36
5 1 37
5 1 38
5 1 39
5 1 40
5 1 41
5 1 42
5 1 43
5 1 44
5 1 45
5 1 46
5 1 47
5 1 48
5 1 49
5 1 50
5 1 51
5 1 52
5 1 53
5 1 54
5 1 55
5 1 56
5 1 57
5 1 58
5 1 59
5 1 60
5 1 61
5 1 62
5 1 63
5 1 64
5 1 65
5 1 66
5 1 67
5 1 68
5 1 69
5 1 70
5 1 71
5 1 72
5 1 73
5 1 74
5 1 75
5 1 76
1 3
1 3
1 6
5 1 77
1 6
5 1 78
1 8
1 8
1 6
5 1 79
1 6
5 1 80
5 1 81
5 1 82
5 1 83
5 1 84
5 1 85
5 1 86
5 1 87
5 1 88
5 1 89
5 1 90
5 1 91
5 1 92
5 1 93
5 1 94
5 1 95
5 1 96
5 1 97
5 1 98
5 1 99
5 1 100
5 1 101
5 1 102
5 1 103
5 1 104
5 1 105
5 1 106
5 1 107
5 1 108
5 1 109
1 3
5 1 110
5 1 111
1 9
1 9
5 1 112
1 7
5 1 113
5 1 114
1 5
5 1 115
1 5
1 6
1 6
5 1 116
4 10
4 20
4 12
4 22
4 24
4 10
4 0
4 0
4 0
4 0
4 0
4 0
4 0
4 0
4 0
4 0
4 0
4 0
4 0
4 0
4 0
4 12
4 16
4 21
4 0
4 0
4 0
4 0
4 0
4 0
4 0
4 0
4 0
4 0
4 0
4 0
4 0
4 0
4 0
4 0
4 0
4 0
4 0
4 0
4 0
4 0
4 0
4 0
4 0
4 0
4 0
4 0
4 0
4 0
4 0
4 0
4 0
4 0
4 0
4 0
4 0
4 0
4 0
4 0
4 0
4 0
4 0
4 0
b
3
3
3
3
3
3
3
3
3
3
3
3
3
3
3
3
3
3
3
3
3
3
3
3
3
3
3
3
3
3
3
3
3
2 0
2 0
2 0
2 0
2 0
2 0
2 0
2 0
2 0
2 0
2 0
2 0
2 0
2 0
2 0
2 0
2 0
2 0
2 0
2 0
2 0
2 0
2 0
2 0
2 0
2 0
2 0
2 0
2 0
2 0
2 0
2 0
2 0
2 0
2 0
2 0
2 0
2 0
2 0
2 0
2 0
2 0
2 0
2 0
2 0
2 0
2 0
2 0
2 0
2 0
2 0
2 0
2 0
2 0
2 0
2 0
2 0
2 0
2 0
2 0
2 0
2 0
2 0
2 0
2 0
2 0
2 0
2 0
2 0
2 0
2 0
2 0
2 0
2 0
2 0
2 0
2 0
2 0
2 0
2 0
2 0
2 0
2 0
2 0
2 0
2 0
2 0
2 0
2 0
2 0
2 0
2 0
2 0
2 0
2 0
2 0
2 0
2 0
2 0
2 0
2 0
2 0
2 0
2 0
2 0
2 0
2 0
2 0
2 0
2 0
2 0
2 0
2 0
2 0
2 0
2 0
2 0
2 0
2 0
2 0
2 0
2 0
2 0
2 0
2 0
2 0
2 0
2 0
2 0
2 0
2 0
2 0
2 0
2 0
2 0
2 0
2 0
2 0
2 0
2 0
2 0
2 0
2 0
2 0
2 0
2 0
2 0
2 0
2 0
2 0
2 0
2 0
2 0
2 0
2 0
2 0
2 0
2 0
2 0
2 0
2 0
k193
4
8
12
16
20
24
28
32
36
40
44
48
52
56
60
64
68
72
76
80
84
88
92
96
100
104
108
112
116
120
124
128
132
135
138
141
144
147
150
153
156
159
162
165
168
171
174
177
180
183
186
189
192
195
198
201
204
207
210
213
216
219
222
225
228
231
234
237
240
243
246
249
252
255
258
260
262
264
266
269
272
275
278
281
284
287
290
293
296
299
302
305
308
311
314
317
320
323
326
329
332
335
338
341
344
347
350
353
356
359
362
364
367
370
372
374
377
380
383
386
389
392
395
398
401
404
407
410
413
416
419
422
425
428
431
434
437
440
443
446
449
452
455
458
461
464
467
470
473
475
477
479
482
485
488
490
492
494
497
500
503
509
515
521
529
537
545
551
557
563
573
583
593
597
601
605
607
609
611
613
615
617
621
625
629
635
641
647
651
655
659
663
667
J0 4
0 0
116 100
149 -1
161 1
J1 4
0 0
116 100
150 -1
162 1
J2 4
0 0
116 100
151 -1
163 1
J3 4
1 0
117 100
149 -1
164 1
J4 4
1 0
117 100
150 -1
165 1
J5 4
1 0
117 100
151 -1
166 1
J6 4
2 0
118 100
152 -1
161 1
J7 4
2 0
118 100
153 -1
162 1
J8 4
2 0
118 100
154 -1
163 1
J9 4
3 0
119 100
152 -1
164 1
J10 4
3 0
119 100
153 -1
165 1
J11 4
3 0
119 100
154 -1
166 1
J12 4
4 0
120 100
161 -1
164 1
J13 4
4 0
120 100
162 -1
165 1
J14 4
4 0
120 100
163 -1
166 1
J15 4
5 0
121 100
161 1
164 -1
J16 4
5 0
121 100
162 1
165 -1
J17 4
5 0
121 100
163 1
166 -1
J18 4
6 0
122 100
161 -1
167 1
J19 4
6 0
122 100
162 -1
168 1
J20 4
6 0
122 100
163 -1
169 1
J21 4
7 0
123 100
161 -1
173 1
J22 4
7 0
123 100
162 -1
174 1
J23 4
7 0
123 100
163 -1
175 1
J24 4
8 0
124 100
164 -1
170 1
J25 4
8 0
124 100
165 -1
171 1
J26 4
8 0
124 100
166 -1
172 1
J27 4
9 0
125 100
164 -1
173 1
J28 4
9 0
125 100
165 -1
174 1
J29 4
9 0
125 100
166 -1
175 1
J30 4
10 0
126 100
167 1
173 -1
J31 4
10 0
126 100
168 1
174 -1
J32 4
10 0
126 100
169 1
175 -1
J33 4
11 0
127 100
170 1
173 -1
J34 4
11 0
127 100
171 1
174 -1
J35 4
11 0
127 100
172 1
175 -1
J36 4
12 0
128 100
167 -1
170 1
J37 4
12 0
128 100
168 -1
171 1
J38 4
12 0
128 100
169 -1
172 1
J39 4
13 0
129 100
167 1
170 -1
J40 4
13 0
129 100
168 1
171 -1
J41 4
13 0
129 100
169 1
172 -1
J42 4
14 0
130 100
155 1
167 -1
J43 4
14 0
130 -100
156 -1
168 1
J44 4
14 0
130 -100
157 -1
169 1
J45 4
15 0
131 -100
158 -1
167 1
J46 4
15 0
131 100
159 1
168 -1
J47 4
15 0
131 -100
160 -1
169 1
J48 4
16 0
132 100
155 1
170 -1
J49 4
16 0
132 -100
156 -1
171 1
J50 4
16 0
132 -100
157 -1
172 1
J51 4
17 0
133 -100
158 -1
170 1
J52 4
17 0
133 100
159 1
171 -1
J53 4
17 0
133 -100
160 -1
172 1
J54 4
18 0
134 100
152 -1
188 1
J55 4
18 0
134 100
153 -1
189 1
J56 4
18 0
134 100
154 -1
190 1
J57 4
19 0
135 100
176 -1
188 1
J58 4
19 0
135 100
177 -1
189 1
J59 4
19 0
135 100
178 -1
190 1
J60 4
20 0
136 100
176 -1
182 1
J61 4
20 0
136 100
177 -1
183 1
J62 4
20 0
136 100
178 -1
184 1
J63 4
21 0
137 100
164 1
188 -1
J64 4
21 0
137 100
165 1
189 -1
J65 4
21 0
137 100
166 1
190 -1
J66 4
22 0
138 100
182 1
188 -1
J67 4
22 0
138 100
183 1
189 -1
J68 4
22 0
138 100
184 1
190 -1
J69 4
23 0
139 100
170 1
182 -1
J70 4
23 0
139 100
171 1
183 -1
J71 4
23 0
139 100
172 1
184 -1
J72 4
24 0
140 100
182 -1
185 1
J73 4
24 0
140 100
183 -1
186 1
J74 4
24 0
140 100
184 -1
187 1
J75 4
25 0
141 100
164 -1
185 1
J76 4
25 0
141 100
165 -1
186 1
J77 4
25 0
141 100
166 -1
187 1
J78 4
26 0
142 100
170 -1
185 1
J79 4
26 0
142 100
171 -1
186 1
J80 4
26 0
142 100
172 -1
187 1
J81 4
27 0
143 100
170 1
185 -1
J82 4
27 0
143 100
171 1
186 -1
J83 4
27 0
143 100
172 1
187 -1
J84 4
28 0
144 -100
185 1
191 -1
J85 4
28 0
144 100
186 -1
192 1
J86 4
28 0
144 100
187 -1
193 1
J87 4
29 0
145 -100
179 -1
185 1
J88 4
29 0
145 -100
180 -1
186 1
J89 4
29 0
145 100
181 1
187 -1
J90 4
30 0
146 -100
170 1
191 -1
J91 4
30 0
146 100
171 -1
192 1
J92 4
30 0
146 100
172 -1
193 1
J93 4
31 0
147 -100
158 -1
191 1
J94 4
31 0
147 100
159 1
192 -1
J95 4
31 0
147 -100
160 -1
193 1
J96 4
32 0
148 -100
179 -1
191 1
J97 4
32 0
148 -100
180 -1
192 1
J98 4
32 0
148 100
181 1
193 -1
J99 2
33 1
36 1
J100 2
34 1
37 1
J101 2
35 1
38 1
J102 3
39 1
42 1
79 1
J103 3
40 1
43 1
80 1
J104 3
41 1
44 1
81 1
J105 6
33 -1
39 -1
45 1
48 -1
51 1
54 1
J106 6
34 -1
40 -1
46 1
49 -1
52 1
55 1
J107 6
35 -1
41 -1
47 1
50 -1
53 1
56 1
J108 8
36 -1
42 -1
45 -1
48 1
57 1
60 1
88 -1
100 1
J109 8
37 -1
43 -1
46 -1
49 1
58 1
61 1
89 -1
101 1
J110 8
38 -1
44 -1
47 -1
50 1
59 1
62 1
90 -1
102 1
J111 5
51 -1
63 -1
69 1
72 -1
75 1
J112 5
52 -1
64 -1
70 1
73 -1
76 1
J113 4
53 -1
65 -1
71 1
74 -1
J114 8
57 -1
66 -1
69 -1
72 1
77 1
94 -1
103 1
106 -1
J115 9
58 -1
67 -1
70 -1
73 1
78 1
95 -1
104 1
107 -1
112 1
J116 8
59 -1
68 -1
71 -1
74 1
96 -1
105 1
108 -1
113 1
J117 4
54 -1
60 -1
63 1
66 1
J118 4
55 -1
61 -1
64 1
67 1
J119 4
56 -1
62 -1
65 1
68 1
J120 2
82 1
85 1
J121 2
83 1
86 1
J122 2
84 1
87 1
J123 4
85 -1
91 -1
94 1
97 1
J124 4
86 -1
92 -1
95 1
98 1
J125 4
87 -1
93 -1
96 1
99 1
J126 4
97 -1
100 -1
103 -1
106 1
J127 5
98 -1
101 -1
104 -1
107 1
109 1
J128 6
99 -1
102 -1
105 -1
108 1
110 1
111 1
J129 4
79 -1
82 -1
88 1
91 1
J130 4
80 -1
83 -1
89 1
92 1
J131 4
81 -1
84 -1
90 1
93 1
J132 3
109 -1
112 -1
114 1
J133 3
110 -1
113 -1
115 1
J134 4
0 1
33 -1
34 -1
35 -1
J135 4
1 1
36 -1
37 -1
38 -1
J136 4
2 1
39 -1
40 -1
41 -1
J137 4
3 1
42 -1
43 -1
44 -1
J138 4
4 1
45 -1
46 -1
47 -1
J139 4
5 1
48 -1
49 -1
50 -1
J140 4
6 1
51 -1
52 -1
53 -1
J141 4
7 1
54 -1
55 -1
56 -1
J142 4
8 1
57 -1
58 -1
59 -1
J143 4
9 1
60 -1
61 -1
62 -1
J144 4
10 1
63 -1
64 -1
65 -1
J145 4
11 1
66 -1
67 -1
68 -1
J146 4
12 1
69 -1
70 -1
71 -1
J147 4
13 1
72 -1
73 -1
74 -1
J148 2
14 1
75 -1
J149 2
15 1
76 -1
J150 2
16 1
77 -1
J151 2
17 1
78 -1
J152 4
18 1
79 -1
80 -1
81 -1
J153 4
19 1
82 -1
83 -1
84 -1
J154 4
20 1
85 -1
86 -1
87 -1
J155 4
21 1
88 -1
89 -1
90 -1
J156 4
22 1
91 -1
92 -1
93 -1
J157 4
23 1
94 -1
95 -1
96 -1
J158 4
24 1
97 -1
98 -1
99 -1
J159 4
25 1
100 -1
101 -1
102 -1
J160 4
26 1
103 -1
104 -1
105 -1
J161 4
27 1
106 -1
107 -1
108 -1
J162 3
28 1
109 -1
110 -1
J163 2
29 1
111 -1
J164 3
30 1
112 -1
113 -1
J165 2
31 1
114 -1
J166 2
32 1
115 -1
G0 33
0 0
1 0
2 0
3 0
4 0
5 0
6 0
7 0
8 0
9 0
10 0
11 0
12 0
13 0
14 0
15 0
16 0
17 0
18 0
19 0
20 0
21 0
22 0
23 0
24 0
25 0
26 0
27 0
28 0
29 0
30 0
31 0
32 0
